50

99 23 300
99 48 417
95 18 306
94 15 435
92 9 319
91 28 289
90 35 371
87 20 405
86 35 361
84 17 360
83 5 253
82 14 283
82 12 420
81 25 401
81 7 272
81 21 315
80 6 395
80 34 329
78 39 408
78 27 379
78 10 283
77 12 371
77 19 352
74 10 420
72 16 439
71 6 329
69 1 344
68 3 343
66 30 302
66 27 442
64 15 418
63 9 393
62 17 368
62 23 449
61 15 227
60 7 438
57 28 183
55 9 234
52 25 428
52 8 284
46 6 179
46 14 445
45 9 257
45 21 433
42 9 394
39 3 199
39 10 307
38 7 176
35 6 252
32 15 391
